solution status: optimal solution found
objective value:                                  -12
x3                                                  1 	(obj:-1)
x205                                                1 	(obj:-1)
x251                                                1 	(obj:-1)
x347                                                1 	(obj:-1)
x496                                                1 	(obj:-1)
x610                                                1 	(obj:-1)
x621                                 1.00000000000001 	(obj:-1)
x703                                 1.00000000000001 	(obj:-1)
x781                                                1 	(obj:-1)
x802                                0.999999999999997 	(obj:-1)
x863                                                1 	(obj:-1)
x870                                                1 	(obj:-1)
